WARNING: for repeatability, setting FPU to use double precision
============================[ Problem Statistics ]=============================
|                                                                             |
|  Number of variables:           624                                         |
|  Number of clauses:          612150                                         |
|  Parse time:                   0.41 s                                       |
|                                                                             |
c ============================[ Search Statistics ]==============================
c | Conflicts |          ORIGINAL         |          LEARNT          | Progress |
c |           |    Vars  Clauses Literals |    Limit  Clauses Lit/Cl |          |
c ===============================================================================
c ===============================================================================
restarts                  : 1301
conflicts                 : 626179         (6276 /sec)
decisions                 : 11821963       (0.00 % random) (118494 /sec)
propagations              : 15191773       (152270 /sec)
conflict literals         : 8878688        (0.65 % deleted)

conflicts w/ DIP found    : 32716          (5.22 % of conflicts)
conflicts w/ dangerous DIP: 0              (0.00 % of conflicts)
conflicts w/ DIP-learning : 7              (0.00 % of conflicts)
decisions on ext vars     : 211            (0.00 % of decisions)
total ext vars            : 5           
tried delete ext vars     : 2           
deleted ext vars          : 2           
max ext vars              : 5           

Memory used               : 161.00 MB
CPU time                  : 99.7685 s
DIP computation time      : 1.6422 s (1.65 % of total time)
ER_sel time               : 0.505134 s
ER_add time               : 7.2e-05 s
ER_delC time              : 0 s
ER_delV time              : 0.002471 s
ER_sub time               : 0.597457 s
ER_stat time              : 0 s

UNSATISFIABLE
